; SWAP1 DUP2 DUP3 DUP4 SWAP3 => DUP1 DUP2 DUP1 SWAP4
(set-option :produce-proofs true)
; 
(set-info :status unknown)
(declare-fun storage_t ((_ BitVec 256) (_ BitVec 256) Int (_ BitVec 256)) (_ BitVec 256))
(declare-fun storage_s ((_ BitVec 256) (_ BitVec 256) Int (_ BitVec 256)) (_ BitVec 256))
(declare-fun exc_halt_t (Int) Bool)
(declare-fun exc_halt_s (Int) Bool)
(declare-fun sc_t (Int) (_ BitVec 6))
(declare-fun stack_t ((_ BitVec 256) (_ BitVec 256) Int (_ BitVec 6)) (_ BitVec 256))
(declare-fun stack_s ((_ BitVec 256) (_ BitVec 256) Int (_ BitVec 6)) (_ BitVec 256))
(declare-fun sc_s (Int) (_ BitVec 6))
(declare-fun used_gas_t ((_ BitVec 256) (_ BitVec 256) Int) Int)
(declare-fun used_gas_s ((_ BitVec 256) (_ BitVec 256) Int) Int)
(assert
 (exists ((x_0 (_ BitVec 256)) (x_1 (_ BitVec 256)) )(let (($x10527 (forall ((w (_ BitVec 256)) )(let ((?x2452 (storage_t x_0 x_1 4 w)))
 (let ((?x3079 (storage_s x_0 x_1 5 w)))
 (= ?x3079 ?x2452))))
 ))
 (let (($x3723 (exc_halt_t 4)))
 (let (($x3979 (exc_halt_s 5)))
 (let (($x7567 (= $x3979 $x3723)))
 (let (($x9921 (forall ((n (_ BitVec 6)) )(let ((?x3757 (sc_t 4)))
 (let (($x6373 (bvsle ?x3757 n)))
 (let ((?x6151 (stack_t x_0 x_1 4 n)))
 (let ((?x5664 (stack_s x_0 x_1 5 n)))
 (let (($x5210 (= ?x5664 ?x6151)))
 (or $x5210 $x6373)))))))
 ))
 (let ((?x3757 (sc_t 4)))
 (let ((?x805 (sc_s 5)))
 (let (($x9143 (= ?x805 ?x3757)))
 (let ((?x4989 (used_gas_t x_0 x_1 0)))
 (let ((?x4976 (used_gas_s x_0 x_1 0)))
 (let (($x4947 (= ?x4976 ?x4989)))
 (let (($x4907 (forall ((w (_ BitVec 256)) )(let ((?x4937 (storage_t x_0 x_1 0 w)))
 (let ((?x4923 (storage_s x_0 x_1 0 w)))
 (= ?x4923 ?x4937))))
 ))
 (let (($x56 (exc_halt_t 0)))
 (let (($x57 (exc_halt_s 0)))
 (let (($x58 (= $x57 $x56)))
 (let (($x10578 (forall ((n (_ BitVec 6)) )(let ((?x63 (sc_t 0)))
 (let (($x7266 (bvsle ?x63 n)))
 (let ((?x4906 (stack_t x_0 x_1 0 n)))
 (let ((?x4920 (stack_s x_0 x_1 0 n)))
 (let (($x4653 (= ?x4920 ?x4906)))
 (or $x4653 $x7266)))))))
 ))
 (let ((?x63 (sc_t 0)))
 (let ((?x72 (sc_s 0)))
 (let (($x73 (= ?x72 ?x63)))
 (let (($x4804 (= $x3723 (or (exc_halt_t 3) (not (bvsle (_ bv0 6) (bvadd (_ bv59 6) (sc_t 3))))))))
 (let (($x208 (forall ((w (_ BitVec 256)) )(let ((?x678 (storage_t x_0 x_1 3 w)))
 (let ((?x2452 (storage_t x_0 x_1 4 w)))
 (= ?x2452 ?x678))))
 ))
 (let (($x10496 (forall ((n (_ BitVec 6)) )(let ((?x2012 (sc_t 3)))
 (let ((?x6689 (bvadd (_ bv59 6) ?x2012)))
 (let (($x7588 (bvsle ?x6689 n)))
 (or $x7588 (= (stack_t x_0 x_1 4 n) (stack_t x_0 x_1 3 n)))))))
 ))
 (let ((?x2012 (sc_t 3)))
 (let (($x2149 (= ?x3757 ?x2012)))
 (let (($x10487 (= (used_gas_t x_0 x_1 4) (+ 3 (used_gas_t x_0 x_1 3)))))
 (let (($x6236 (= (stack_t x_0 x_1 4 (bvadd (_ bv62 6) ?x3757)) (stack_t x_0 x_1 3 (bvadd (_ bv62 6) ?x2012)))))
 (let (($x5434 (= (stack_t x_0 x_1 4 (bvadd (_ bv61 6) ?x3757)) (stack_t x_0 x_1 3 (bvadd (_ bv61 6) ?x2012)))))
 (let (($x10358 (= (stack_t x_0 x_1 4 (bvadd (_ bv60 6) ?x3757)) (stack_t x_0 x_1 3 (bvadd (_ bv60 6) ?x2012)))))
 (let ((?x8024 (bvadd (_ bv63 6) ?x2012)))
 (let ((?x5463 (stack_t x_0 x_1 3 ?x8024)))
 (let (($x3845 (= (stack_t x_0 x_1 4 (bvadd (_ bv63 6) ?x3757)) (stack_t x_0 x_1 3 (bvadd (_ bv59 6) ?x2012)))))
 (let (($x10344 (not (bvsle (_ bv0 6) (bvadd (_ bv63 6) (sc_t 2))))))
 (let (($x2326 (not (= ((_ extract 6 6) (bvadd (_ bv1 7) (concat (_ bv0 1) (sc_t 2)))) (_ bv0 1)))))
 (let (($x903 (exc_halt_t 2)))
 (let (($x10336 (exc_halt_t 3)))
 (let (($x743 (= $x10336 (or $x903 $x2326 $x10344))))
 (let (($x9980 (forall ((w (_ BitVec 256)) )(let ((?x380 (storage_t x_0 x_1 2 w)))
 (let ((?x678 (storage_t x_0 x_1 3 w)))
 (= ?x678 ?x380))))
 ))
 (let (($x7541 (forall ((n (_ BitVec 6)) )(let ((?x4056 (sc_t 2)))
 (let ((?x2158 (bvadd (_ bv63 6) ?x4056)))
 (let (($x6720 (bvsle ?x2158 n)))
 (or $x6720 (= (stack_t x_0 x_1 3 n) (stack_t x_0 x_1 2 n)))))))
 ))
 (let (($x8655 (= ?x2012 (bvadd (_ bv1 6) (sc_t 2)))))
 (let ((?x4949 (used_gas_t x_0 x_1 3)))
 (let ((?x4056 (sc_t 2)))
 (let ((?x2158 (bvadd (_ bv63 6) ?x4056)))
 (let ((?x6095 (stack_t x_0 x_1 2 ?x2158)))
 (let (($x1920 (exc_halt_t 1)))
 (let (($x1881 (not (= ((_ extract 6 6) (bvadd (_ bv1 7) (concat (_ bv0 1) (sc_t 1)))) (_ bv0 1)))))
 (let (($x2463 (= $x903 (or $x1881 $x1920 (not (bvsle (_ bv0 6) (bvadd (_ bv62 6) (sc_t 1))))))))
 (let (($x9367 (forall ((w (_ BitVec 256)) )(let ((?x401 (storage_t x_0 x_1 1 w)))
 (let ((?x380 (storage_t x_0 x_1 2 w)))
 (= ?x380 ?x401))))
 ))
 (let (($x5658 (forall ((n (_ BitVec 6)) )(let ((?x4023 (sc_t 1)))
 (let ((?x2292 (bvadd (_ bv62 6) ?x4023)))
 (let (($x2429 (bvsle ?x2292 n)))
 (or $x2429 (= (stack_t x_0 x_1 2 n) (stack_t x_0 x_1 1 n)))))))
 ))
 (let (($x2343 (= ?x4056 (bvadd (_ bv1 6) (sc_t 1)))))
 (let ((?x403 (used_gas_t x_0 x_1 2)))
 (let ((?x4023 (sc_t 1)))
 (let ((?x3198 (bvadd (_ bv63 6) ?x4023)))
 (let ((?x1934 (stack_t x_0 x_1 1 ?x3198)))
 (let ((?x2292 (bvadd (_ bv62 6) ?x4023)))
 (let ((?x6637 (stack_t x_0 x_1 1 ?x2292)))
 (let (($x3039 (not (= ((_ extract 6 6) (bvadd (_ bv1 7) (concat (_ bv0 1) ?x63))) (_ bv0 1)))))
 (let (($x2925 (= $x1920 (or $x56 $x3039 (not (bvsle (_ bv0 6) (bvadd (_ bv63 6) ?x63)))))))
 (let (($x511 (forall ((w (_ BitVec 256)) )(let ((?x4937 (storage_t x_0 x_1 0 w)))
 (let ((?x401 (storage_t x_0 x_1 1 w)))
 (= ?x401 ?x4937))))
 ))
 (let (($x3843 (forall ((n (_ BitVec 6)) )(let ((?x63 (sc_t 0)))
 (let ((?x2932 (bvadd (_ bv63 6) ?x63)))
 (let (($x3334 (bvsle ?x2932 n)))
 (or $x3334 (= (stack_t x_0 x_1 1 n) (stack_t x_0 x_1 0 n)))))))
 ))
 (let (($x9398 (= ?x4023 (bvadd (_ bv1 6) ?x63))))
 (let ((?x2932 (bvadd (_ bv63 6) ?x63)))
 (let ((?x3842 (stack_t x_0 x_1 0 ?x2932)))
 (let (($x10486 (= $x3979 (or (exc_halt_s 4) (not (bvsle (_ bv0 6) (bvadd (_ bv60 6) (sc_s 4))))))))
 (let (($x10339 (forall ((w (_ BitVec 256)) )(let ((?x8837 (storage_s x_0 x_1 4 w)))
 (let ((?x3079 (storage_s x_0 x_1 5 w)))
 (= ?x3079 ?x8837))))
 ))
 (let (($x655 (forall ((n (_ BitVec 6)) )(let ((?x4305 (sc_s 4)))
 (let ((?x8826 (bvadd (_ bv60 6) ?x4305)))
 (let (($x9977 (bvsle ?x8826 n)))
 (or $x9977 (= (stack_s x_0 x_1 5 n) (stack_s x_0 x_1 4 n)))))))
 ))
 (let ((?x4305 (sc_s 4)))
 (let (($x3369 (= ?x805 ?x4305)))
 (let (($x10475 (= (used_gas_s x_0 x_1 5) (+ 3 (used_gas_s x_0 x_1 4)))))
 (let (($x984 (= (stack_s x_0 x_1 5 (bvadd (_ bv62 6) ?x805)) (stack_s x_0 x_1 4 (bvadd (_ bv62 6) ?x4305)))))
 (let (($x10546 (= (stack_s x_0 x_1 5 (bvadd (_ bv61 6) ?x805)) (stack_s x_0 x_1 4 (bvadd (_ bv61 6) ?x4305)))))
 (let ((?x477 (bvadd (_ bv63 6) ?x4305)))
 (let ((?x10403 (stack_s x_0 x_1 4 ?x477)))
 (let (($x10562 (= (stack_s x_0 x_1 5 (bvadd (_ bv63 6) ?x805)) (stack_s x_0 x_1 4 (bvadd (_ bv60 6) ?x4305)))))
 (let (($x2793 (not (= ((_ extract 6 6) (bvadd (_ bv1 7) (concat (_ bv0 1) (sc_s 3)))) (_ bv0 1)))))
 (let (($x292 (exc_halt_s 3)))
 (let (($x64 (exc_halt_s 4)))
 (let (($x673 (= $x64 (or $x292 (not (bvsle (_ bv0 6) (bvadd (_ bv60 6) (sc_s 3)))) $x2793))))
 (let (($x4055 (forall ((w (_ BitVec 256)) )(let ((?x2779 (storage_s x_0 x_1 3 w)))
 (let ((?x8837 (storage_s x_0 x_1 4 w)))
 (= ?x8837 ?x2779))))
 ))
 (let (($x6589 (forall ((n (_ BitVec 6)) )(let ((?x275 (sc_s 3)))
 (let ((?x4248 (bvadd (_ bv60 6) ?x275)))
 (let (($x2040 (bvsle ?x4248 n)))
 (or $x2040 (= (stack_s x_0 x_1 4 n) (stack_s x_0 x_1 3 n)))))))
 ))
 (let (($x8496 (= ?x4305 (bvadd (_ bv1 6) (sc_s 3)))))
 (let ((?x48 (used_gas_s x_0 x_1 4)))
 (let ((?x275 (sc_s 3)))
 (let ((?x9061 (bvadd (_ bv63 6) ?x275)))
 (let ((?x43 (stack_s x_0 x_1 3 ?x9061)))
 (let (($x607 (= (stack_s x_0 x_1 4 (bvadd (_ bv62 6) ?x275)) (stack_s x_0 x_1 3 (bvadd (_ bv62 6) ?x275)))))
 (let (($x610 (= (stack_s x_0 x_1 4 (bvadd (_ bv61 6) ?x275)) (stack_s x_0 x_1 3 (bvadd (_ bv61 6) ?x275)))))
 (let ((?x4248 (bvadd (_ bv60 6) ?x275)))
 (let ((?x648 (stack_s x_0 x_1 3 ?x4248)))
 (let (($x7584 (not (= ((_ extract 6 6) (bvadd (_ bv1 7) (concat (_ bv0 1) (sc_s 2)))) (_ bv0 1)))))
 (let (($x247 (exc_halt_s 2)))
 (let (($x1766 (= $x292 (or $x247 (not (bvsle (_ bv0 6) (bvadd (_ bv61 6) (sc_s 2)))) $x7584))))
 (let (($x4933 (forall ((w (_ BitVec 256)) )(let ((?x6060 (storage_s x_0 x_1 2 w)))
 (let ((?x2779 (storage_s x_0 x_1 3 w)))
 (= ?x2779 ?x6060))))
 ))
 (let (($x4879 (forall ((n (_ BitVec 6)) )(let ((?x218 (sc_s 2)))
 (let ((?x3716 (bvadd (_ bv61 6) ?x218)))
 (let (($x1253 (bvsle ?x3716 n)))
 (or (= (stack_s x_0 x_1 3 n) (stack_s x_0 x_1 2 n)) $x1253)))))
 ))
 (let (($x9283 (= ?x275 (bvadd (_ bv1 6) (sc_s 2)))))
 (let ((?x5156 (used_gas_s x_0 x_1 3)))
 (let ((?x218 (sc_s 2)))
 (let ((?x3563 (bvadd (_ bv63 6) ?x218)))
 (let ((?x9669 (stack_s x_0 x_1 2 ?x3563)))
 (let (($x10441 (= (stack_s x_0 x_1 3 (bvadd (_ bv62 6) ?x218)) (stack_s x_0 x_1 2 (bvadd (_ bv62 6) ?x218)))))
 (let ((?x3716 (bvadd (_ bv61 6) ?x218)))
 (let ((?x619 (stack_s x_0 x_1 2 ?x3716)))
 (let (($x8796 (not (= ((_ extract 6 6) (bvadd (_ bv1 7) (concat (_ bv0 1) (sc_s 1)))) (_ bv0 1)))))
 (let (($x189 (exc_halt_s 1)))
 (let (($x7088 (= $x247 (or $x189 (not (bvsle (_ bv0 6) (bvadd (_ bv62 6) (sc_s 1)))) $x8796))))
 (let (($x162 (forall ((w (_ BitVec 256)) )(let ((?x4682 (storage_s x_0 x_1 1 w)))
 (let ((?x6060 (storage_s x_0 x_1 2 w)))
 (= ?x6060 ?x4682))))
 ))
 (let (($x611 (forall ((n (_ BitVec 6)) )(let ((?x154 (sc_s 1)))
 (let ((?x3271 (bvadd (_ bv62 6) ?x154)))
 (let (($x3254 (bvsle ?x3271 n)))
 (or (= (stack_s x_0 x_1 2 n) (stack_s x_0 x_1 1 n)) $x3254)))))
 ))
 (let (($x6573 (= ?x218 (bvadd (_ bv1 6) (sc_s 1)))))
 (let ((?x6177 (used_gas_s x_0 x_1 2)))
 (let ((?x154 (sc_s 1)))
 (let ((?x3584 (bvadd (_ bv63 6) ?x154)))
 (let ((?x10401 (stack_s x_0 x_1 1 ?x3584)))
 (let ((?x3271 (bvadd (_ bv62 6) ?x154)))
 (let ((?x10360 (stack_s x_0 x_1 1 ?x3271)))
 (let (($x2701 (= $x189 (or $x57 (not (bvsle (_ bv0 6) (bvadd (_ bv62 6) ?x72)))))))
 (let (($x10372 (forall ((w (_ BitVec 256)) )(let ((?x4923 (storage_s x_0 x_1 0 w)))
 (let ((?x4682 (storage_s x_0 x_1 1 w)))
 (= ?x4682 ?x4923))))
 ))
 (let (($x10373 (forall ((n (_ BitVec 6)) )(let ((?x72 (sc_s 0)))
 (let ((?x3583 (bvadd (_ bv62 6) ?x72)))
 (let (($x2583 (bvsle ?x3583 n)))
 (or $x2583 (= (stack_s x_0 x_1 1 n) (stack_s x_0 x_1 0 n)))))))
 ))
 (let (($x3865 (= ?x154 ?x72)))
 (let (($x10418 (forall ((w (_ BitVec 256)) )(let ((?x4923 (storage_s x_0 x_1 0 w)))
 (= ?x4923 (_ bv0 256))))
 ))
 (let (($x10438 (= ?x4976 0)))
 (let (($x3253 (not $x57)))
 (let (($x3483 (= (stack_s x_0 x_1 0 (_ bv1 6)) x_1)))
 (let (($x3950 (= (stack_s x_0 x_1 0 (_ bv0 6)) x_0)))
 (let (($x9438 (= ?x72 (_ bv2 6))))
 (and $x9438 $x3950 $x3483 $x3253 $x10438 $x10418 (= ?x10401 (stack_s x_0 x_1 0 (bvadd (_ bv62 6) ?x72))) (= ?x10360 (stack_s x_0 x_1 0 (bvadd (_ bv63 6) ?x72))) (= (used_gas_s x_0 x_1 1) (+ 3 ?x4976)) $x3865 $x10373 $x10372 $x2701 (= ?x9669 ?x10360) (= (stack_s x_0 x_1 2 ?x3271) ?x10360) (= (stack_s x_0 x_1 2 ?x3584) ?x10401) (= ?x6177 (+ 3 (used_gas_s x_0 x_1 1))) $x6573 $x611 $x162 $x7088 (= ?x43 ?x619) (= (stack_s x_0 x_1 3 ?x3716) ?x619) $x10441 (= (stack_s x_0 x_1 3 ?x3563) ?x9669) (= ?x5156 (+ 3 ?x6177)) $x9283 $x4879 $x4933 $x1766 (= ?x10403 ?x648) (= (stack_s x_0 x_1 4 ?x4248) ?x648) $x610 $x607 (= (stack_s x_0 x_1 4 ?x9061) ?x43) (= ?x48 (+ 3 ?x5156)) $x8496 $x6589 $x4055 $x673 $x10562 (= (stack_s x_0 x_1 5 (bvadd (_ bv60 6) ?x805)) ?x10403) $x10546 $x984 $x10475 $x3369 $x655 $x10339 $x10486 (= ?x1934 ?x3842) (= (stack_t x_0 x_1 1 ?x2932) ?x3842) (= (used_gas_t x_0 x_1 1) (+ 3 ?x4989)) $x9398 $x3843 $x511 $x2925 (= ?x6095 ?x6637) (= (stack_t x_0 x_1 2 ?x2292) ?x6637) (= (stack_t x_0 x_1 2 ?x3198) ?x1934) (= ?x403 (+ 3 (used_gas_t x_0 x_1 1))) $x2343 $x5658 $x9367 $x2463 (= ?x5463 ?x6095) (= (stack_t x_0 x_1 3 ?x2158) ?x6095) (= ?x4949 (+ 3 ?x403)) $x8655 $x7541 $x9980 $x743 $x3845 (= (stack_t x_0 x_1 4 (bvadd (_ bv59 6) ?x3757)) ?x5463) $x10358 $x5434 $x6236 $x10487 $x2149 $x10496 $x208 $x4804 $x73 $x10578 $x58 $x4907 $x4947 (not (and $x9143 $x9921 $x7567 $x10527)))))))))))))))))))))))))))))))))))))))))))))))))))))))))))))))))))))))))))))))))))))))))))))))))))))))))))))))))))))))))))))))
 )
(check-sat)
(get-proof)
